scip-hello-world/knapsack-problem.lp
maximize
4 x1 + 2 x2 + 2 x3 + 1 x4 + 10 x5

subject to
weight: 12 x1 + 2 x2 + 1 x3 + 1 x4 + 4 x5 <= 15

binary
x1 x2 x3 x4 x5

