scip-hello-world/knapsack-problem.sol
solution status: optimal solution found
objective value:                                   15
d2w2                                                1 	(obj:2)
d2w1                                                1 	(obj:2)
d1w1                                                1 	(obj:1)
d10w4                                               1 	(obj:10)
